(declare-const v0 Bool)
(declare-const v1 Bool)
(declare-const v2 Bool)
(declare-const v3 Bool)
(declare-const v4 Bool)
(assert (edge (or v0 v1) true))
(assert (edge v1 v2))
(assert (edge (not v2) v3))
(assert (edge (or v4 (not v2)) (or (not v1) v2 v3)))
(assert (edge (or v2 (not v3)) true))
(assert (not (edge (not v4) (or (not v3) (not v0)))))